--- Job thunder.gms Start 06/25/20 20:17:30 31.1.0 r55b6ce3 WEX-WEI x86 64bit/MS Windows
--- Applying:
    E:\31.1\gmsprmNT.txt
--- GAMS Parameters defined
    Input C:\Users\hasee\Documents\GitHub\GAMS-MIRO\Thundercloud\thunder.gms
    PageSize 0
    ScrDir C:\Users\hasee\Documents\GitHub\GAMS-MIRO\Thundercloud\225a\
    SysDir E:\31.1\
    LogOption 3
    ErrMsg 1
    ErrorLog 99
    IDE 1
    GDX C:\Users\hasee\Documents\GitHub\GAMS-MIRO\Thundercloud\res.gdx
    LstTitleLeftAligned 1
    IDCGenerateJSON conf_thunder/thunder_io.json
    IDCGenerateGDX data_thunder/default.gdx
GAMS 31.1.0   Copyright (C) 1987-2020 GAMS Development. All rights reserved
*** License has expired 16 days ago
Licensee: CS526 Advanced Linear Programming              G200210/0001AS-GEN
          Course License UW-Madison, Prof Ferris, Spring 2020        DCE515
          E:\31.1\gamslice.txt
          Evaluation license: Not for commercial or production use
--- Starting compilation
--- thunder.gms(191) 3 Mb
--- Starting execution: elapsed 0:00:00.015
--- thunder.gms(155) 4 Mb
--- Generating LP model airplane
--- thunder.gms(173) 5 Mb
---   1,281 rows  2,848 columns  8,055 non-zeroes
--- Executing CPLEX: elapsed 0:00:05.981

IBM ILOG CPLEX   31.1.0 r55b6ce3 Released May 01, 2020 WEI x86 64bit/MS Window
--- GAMS/Cplex licensed for continuous and discrete problems.
Cplex 12.10.0.0

Reading data...
Starting Cplex...
Space for names approximately 0.09 Mb
Use option 'names no' to turn use of names off
Version identifier: 12.10.0.0 | 2019-11-26 | 843d4de2ae
CPXPARAM_Advance                                 0
CPXPARAM_Threads                                 1
CPXPARAM_Parallel                                1
CPXPARAM_Simplex_Limits_Iterations               2000000000
CPXPARAM_TimeLimit                               1000
CPXPARAM_Tune_TimeLimit                          200
Tried aggregator 1 time.
LP Presolve eliminated 485 rows and 907 columns.
Aggregator did 42 substitutions.
Reduced LP has 754 rows, 1899 columns, and 3787 nonzeros.
Presolve time = 0.02 sec. (3.92 ticks)
Initializing dual steep norms . . .

Iteration log . . .
Iteration:     1   Dual objective     =             1.290000
Iteration:   100   Dual objective     =            86.700000
Iteration:   185   Dual objective     =           121.780000
LP status(1): optimal
Cplex Time: 0.02sec (det. 7.46 ticks)

Optimal solution found.
Objective :         144.820000

--- Restarting execution
--- thunder.gms(173) 3 Mb
--- Reading solution for model airplane
--- Executing after solve: elapsed 0:00:06.134
--- thunder.gms(191) 4 Mb
--- GDX File C:\Users\hasee\Documents\GitHub\GAMS-MIRO\Thundercloud\res.gdx
--- GDX File C:\Users\hasee\Documents\GitHub\GAMS-MIRO\Thundercloud\data_thunder/default.gdx
*** Status: Normal completion
--- Job thunder.gms Stop 06/25/20 20:17:36 elapsed 0:00:06.184

Warning in eval(ei, envir) :
  The alias of symbol: 'xcoordcloud' was selected to be overwritten. However, this symbol could not be found.
Warning in eval(ei, envir) :
  The alias of symbol: 'lowcloud' was selected to be overwritten. However, this symbol could not be found.
Warning in eval(ei, envir) :
  The alias of symbol: 'highcloud' was selected to be overwritten. However, this symbol could not be found.
Warning in eval(ei, envir) :
  The alias of symbol: 'flowoutput' was selected to be overwritten. However, this symbol could not be found.
Warning in eval(ei, envir) :
  The alias of symbol: 'minheight' was selected to be overwritten. However, this symbol could not be found.
TRACE [2020-06-25 20:17:41] Logging facility initialised.
DEBUG [2020-06-25 20:17:41] Database connection established.
DEBUG [2020-06-25 20:17:41] Access Control initialised.
WARN [2020-06-25 20:17:41] There are orphaned tables in your database: 'thunder_xcoordcloud', 'thunder_lowcloud', 'thunder_highcloud', 'thunder_flowoutput', 'thunder_minheight'.

This could be caused because you used a different database schema in the past (e.g. due to different inputs and/or outputs). 
Note that you can remove orphaned database tables using the configuration mode ('Database management' section).
ERROR [2020-06-25 20:17:41] There are tables in your database that do not match the current database schema of your model.

Those tables are: 'cloudsinfo'.
Error message: ' Database table headers ('clouds', 'cloudinf', 'value') are different from those in current configuration ('clouds', 'xc', 'low', 'high').
Please fix the database schema or change your GAMS model!
'.
FATAL [2020-06-25 20:17:41] 
 There are tables in your database that do not match the current database schema of your model.

Those tables are: 'cloudsinfo'.
Error message: ' Database table headers ('clouds', 'cloudinf', 'value') are different from those in current configuration ('clouds', 'xc', 'low', 'high').
Please fix the database schema or change your GAMS model!
'.
INFO [2020-06-25 20:17:51] Database table: 'thunder_cloudsinfo' deleted.
INFO [2020-06-25 20:18:03] Database table: 'thunder_cloudsinfo' deleted.
DEBUG [2020-06-25 20:18:04] Db: Database connection ended as Db object was gced.
